250
3948
182
0 2
0 3
0 10
0 13
0 36
0 110
0 126
0 129
0 139
0 145
0 164
1 4
1 8
1 9
1 15
1 56
1 112
1 127
1 128
1 130
1 133
1 136
2 3
2 10
2 13
2 20
2 21
2 24
2 29
2 32
2 36
2 37
2 38
2 47
2 52
2 94
2 110
2 126
2 129
2 139
2 145
2 164
3 10
3 13
3 20
3 21
3 24
3 29
3 32
3 36
3 37
3 38
3 47
3 52
3 57
3 58
3 59
3 63
3 65
3 94
3 110
3 126
3 129
3 139
3 145
3 164
3 183
3 187
3 201
3 220
3 236
4 8
4 9
4 15
4 22
4 28
4 30
4 31
4 33
4 39
4 41
4 44
4 45
4 48
4 49
4 51
4 56
4 112
4 127
4 128
4 130
4 133
4 136
5 6
5 7
5 11
5 12
5 14
5 16
5 23
5 25
5 26
5 27
5 40
5 42
5 43
5 46
5 50
5 60
5 79
5 131
5 132
5 134
5 152
5 170
5 186
5 202
5 204
5 221
5 224
5 239
6 7
6 11
6 12
6 14
6 16
6 23
6 25
6 26
6 27
6 40
6 42
6 43
6 46
6 50
6 60
6 79
7 11
7 12
7 14
7 16
7 23
7 25
7 26
7 27
7 40
7 42
7 43
7 46
7 50
7 60
7 79
7 82
7 117
7 121
7 122
7 124
7 135
7 137
7 138
7 140
7 141
7 142
7 143
8 9
8 15
8 22
8 28
8 30
8 31
8 33
8 39
8 41
8 44
8 45
8 48
8 49
8 51
8 56
8 63
8 81
8 97
8 99
8 100
8 112
8 118
8 127
8 128
8 130
8 133
8 136
8 161
8 170
8 172
8 173
8 174
8 175
8 176
8 177
8 192
8 246
9 15
9 22
9 28
9 30
9 31
9 33
9 39
9 41
9 44
9 45
9 48
9 49
9 51
9 56
9 63
9 81
9 97
9 99
9 100
9 112
9 118
9 127
9 128
9 130
9 133
9 136
9 192
9 246
10 13
10 20
10 21
10 24
10 29
10 32
10 36
10 37
10 38
10 47
10 52
10 61
10 62
10 64
10 66
10 67
10 68
10 69
10 80
10 83
10 85
10 94
10 101
10 110
10 120
10 126
10 129
10 139
10 145
10 164
11 12
11 14
11 16
11 23
11 25
11 26
11 27
11 40
11 42
11 43
11 46
11 50
11 60
11 79
11 82
11 117
11 121
11 122
11 124
11 135
11 137
11 138
11 140
11 141
11 142
11 143
11 146
11 149
11 156
11 157
11 159
11 173
11 177
11 197
11 198
11 199
11 200
11 207
11 210
11 218
11 222
11 230
12 14
12 16
12 23
12 25
12 26
12 27
12 40
12 42
12 43
12 46
12 50
12 60
12 79
12 82
12 117
12 121
12 122
12 124
12 135
12 137
12 138
12 140
12 141
12 142
12 143
12 146
12 149
12 156
12 157
12 159
12 173
12 177
12 218
12 222
12 230
13 20
13 21
13 24
13 29
13 32
13 36
13 37
13 38
13 47
13 52
13 61
13 62
13 64
13 66
13 67
13 68
13 69
13 80
13 83
13 85
13 94
13 101
13 110
13 120
13 126
13 129
13 139
13 145
13 164
13 184
13 186
13 188
13 190
13 191
13 193
13 244
14 16
14 23
14 25
14 26
14 27
14 40
14 42
14 43
14 46
14 50
14 60
14 67
14 79
14 82
14 104
14 117
14 121
14 122
14 124
14 135
14 137
14 138
14 140
14 141
14 142
14 143
14 147
14 155
14 158
14 160
14 174
14 175
14 176
15 22
15 28
15 30
15 31
15 33
15 39
15 41
15 44
15 45
15 48
15 49
15 51
15 56
15 65
15 84
15 86
15 98
15 102
15 103
15 104
15 105
15 106
15 112
15 119
15 123
15 127
15 128
15 130
15 133
15 136
16 23
16 25
16 26
16 27
16 40
16 42
16 43
16 46
16 50
16 60
16 67
16 79
16 82
16 104
16 117
16 121
16 122
16 124
16 135
16 137
16 138
16 140
16 141
16 142
16 143
16 147
16 155
16 158
16 160
16 174
16 175
16 176
16 214
16 215
16 216
16 219
16 220
16 223
16 228
16 229
16 231
17 19
17 22
17 27
17 28
17 30
17 31
17 33
17 34
17 36
17 43
17 46
17 50
17 55
17 70
17 87
17 92
17 162
17 164
17 196
17 199
17 232
18 23
18 25
18 26
18 40
18 42
18 53
18 56
18 60
18 79
18 108
18 178
18 197
19 22
19 27
19 28
19 30
19 31
19 33
19 55
19 92
19 199
20 21
20 24
20 29
20 32
20 36
20 37
20 38
20 47
20 52
20 94
20 129
20 139
21 24
21 29
21 32
21 36
21 37
21 38
21 47
21 52
21 57
21 58
21 59
21 63
21 65
21 94
21 129
21 139
21 183
21 187
21 201
21 220
21 236
22 27
22 28
22 30
22 31
22 33
22 39
22 41
22 44
22 45
22 48
22 49
22 51
22 55
22 92
22 130
22 133
22 136
22 199
23 25
23 26
23 27
23 40
23 42
23 43
23 46
23 50
23 53
23 56
23 60
23 79
23 108
23 131
23 132
23 134
23 152
23 170
23 178
23 186
23 197
23 202
23 204
23 221
23 224
23 239
24 29
24 32
24 36
24 37
24 38
24 41
24 47
24 52
24 57
24 58
24 59
24 63
24 65
24 71
24 77
24 78
24 82
24 88
24 94
24 96
24 129
24 139
24 169
24 171
24 183
24 187
24 201
24 220
24 223
24 236
24 240
25 26
25 27
25 40
25 42
25 43
25 46
25 50
25 53
25 56
25 60
25 79
25 108
25 178
25 197
26 27
26 40
26 42
26 43
26 46
26 50
26 53
26 56
26 60
26 79
26 82
26 108
26 117
26 121
26 122
26 124
26 135
26 137
26 138
26 140
26 141
26 142
26 143
26 178
26 197
27 28
27 30
27 31
27 33
27 34
27 36
27 40
27 42
27 43
27 46
27 50
27 55
27 60
27 70
27 79
27 82
27 87
27 92
27 117
27 121
27 122
27 124
27 135
27 137
27 138
27 140
27 141
27 142
27 143
27 162
27 164
27 196
27 199
27 232
28 30
28 31
28 33
28 39
28 41
28 44
28 45
28 48
28 49
28 51
28 55
28 63
28 81
28 92
28 97
28 99
28 100
28 118
28 130
28 133
28 136
28 192
28 199
28 246
29 32
29 36
29 37
29 38
29 47
29 52
29 61
29 62
29 64
29 66
29 67
29 68
29 69
29 80
29 83
29 85
29 94
29 101
29 120
29 129
29 139
30 31
30 33
30 39
30 41
30 44
30 45
30 48
30 49
30 51
30 55
30 65
30 84
30 86
30 92
30 98
30 102
30 103
30 104
30 105
30 106
30 119
30 123
30 130
30 133
30 136
30 174
30 199
30 229
30 242
30 248
31 32
31 33
31 39
31 41
31 44
31 45
31 48
31 49
31 51
31 55
31 65
31 68
31 84
31 85
31 86
31 92
31 98
31 102
31 103
31 104
31 105
31 106
31 119
31 123
31 130
31 133
31 136
31 141
31 189
31 194
31 199
31 207
31 208
31 211
31 239
31 241
31 243
31 245
31 249
32 36
32 37
32 38
32 47
32 51
32 52
32 61
32 62
32 64
32 66
32 67
32 68
32 69
32 80
32 83
32 85
32 94
32 101
32 105
32 120
32 129
32 139
32 141
32 180
32 181
32 185
32 189
32 192
32 194
32 195
32 207
32 208
32 211
32 239
32 241
32 243
32 245
32 249
33 39
33 41
33 44
33 45
33 48
33 49
33 51
33 55
33 65
33 84
33 86
33 92
33 98
33 102
33 103
33 104
33 105
33 106
33 119
33 123
33 130
33 133
33 136
33 199
34 36
34 43
34 46
34 50
34 70
34 87
34 162
34 164
34 196
34 232
35 37
35 38
35 40
35 42
35 47
35 52
35 73
35 90
35 94
35 127
35 163
35 180
35 214
35 233
36 37
36 38
36 43
36 46
36 47
36 50
36 52
36 70
36 87
36 94
36 110
36 126
36 129
36 139
36 145
36 162
36 164
36 196
36 232
37 38
37 40
37 42
37 47
37 52
37 73
37 90
37 94
37 127
37 129
37 139
37 163
37 180
37 214
37 233
38 40
38 42
38 47
38 52
38 57
38 58
38 59
38 63
38 65
38 73
38 90
38 94
38 127
38 129
38 139
38 163
38 180
38 183
38 187
38 201
38 214
38 220
38 233
38 236
39 41
39 44
39 45
39 48
39 49
39 51
39 130
39 133
39 136
40 42
40 43
40 46
40 47
40 50
40 52
40 53
40 56
40 60
40 73
40 79
40 90
40 94
40 108
40 127
40 131
40 132
40 134
40 152
40 163
40 170
40 178
40 180
40 186
40 197
40 202
40 204
40 214
40 221
40 224
40 233
40 239
41 44
41 45
41 48
41 49
41 51
41 59
41 71
41 77
41 78
41 82
41 88
41 89
41 92
41 93
41 95
41 96
41 101
41 130
41 133
41 136
41 150
41 166
41 167
41 169
41 171
41 187
41 223
41 237
41 240
42 43
42 46
42 47
42 50
42 52
42 53
42 56
42 60
42 73
42 79
42 90
42 94
42 108
42 127
42 163
42 178
42 180
42 197
42 214
42 233
43 46
43 50
43 60
43 70
43 79
43 87
43 162
43 164
43 196
43 232
44 45
44 48
44 49
44 51
44 63
44 81
44 97
44 99
44 100
44 118
44 130
44 133
44 136
44 161
44 170
44 172
44 173
44 174
44 175
44 176
44 177
44 192
44 246
45 48
45 49
45 51
45 63
45 81
45 97
45 99
45 100
45 118
45 130
45 133
45 136
45 192
45 246
46 50
46 60
46 62
46 70
46 79
46 82
46 87
46 117
46 121
46 122
46 124
46 135
46 137
46 138
46 140
46 141
46 142
46 143
46 148
46 150
46 151
46 154
46 162
46 164
46 191
46 196
46 208
46 209
46 217
46 227
46 232
46 245
47 52
47 61
47 62
47 64
47 66
47 67
47 68
47 69
47 73
47 80
47 83
47 85
47 90
47 94
47 101
47 120
47 127
47 129
47 139
47 163
47 180
47 214
47 233
48 49
48 51
48 65
48 84
48 86
48 98
48 102
48 103
48 104
48 105
48 106
48 119
48 123
48 130
48 133
48 136
48 155
48 201
48 215
48 219
48 220
48 228
48 235
48 236
48 244
48 247
49 51
49 65
49 84
49 86
49 98
49 102
49 103
49 104
49 105
49 106
49 119
49 123
49 130
49 133
49 136
49 174
49 229
49 242
49 248
50 60
50 67
50 70
50 79
50 82
50 87
50 104
50 117
50 121
50 122
50 124
50 135
50 137
50 138
50 140
50 141
50 142
50 143
50 147
50 155
50 158
50 160
50 162
50 164
50 174
50 175
50 176
50 196
50 232
51 65
51 68
51 84
51 85
51 86
51 98
51 102
51 103
51 104
51 105
51 106
51 119
51 123
51 130
51 133
51 136
51 141
51 189
51 194
51 207
51 208
51 211
51 239
51 241
51 243
51 245
51 249
52 61
52 62
52 64
52 66
52 67
52 68
52 69
52 73
52 80
52 83
52 85
52 90
52 94
52 101
52 120
52 127
52 129
52 139
52 163
52 180
52 181
52 185
52 189
52 192
52 194
52 195
52 207
52 214
52 233
53 54
53 55
53 56
53 60
53 72
53 79
53 89
53 92
53 108
53 109
53 146
53 178
53 179
53 197
53 198
53 199
53 215
54 55
54 56
54 60
54 72
54 79
54 89
54 92
54 108
54 109
54 146
54 178
54 179
54 197
54 198
54 199
54 215
55 56
55 60
55 72
55 79
55 89
55 92
55 108
55 109
55 146
55 178
55 179
55 197
55 198
55 199
55 215
56 60
56 72
56 79
56 89
56 92
56 108
56 109
56 112
56 127
56 128
56 130
56 133
56 136
56 146
56 178
56 179
56 197
56 198
56 199
56 215
57 58
57 59
57 63
57 65
57 183
57 187
57 201
57 220
57 236
58 59
58 63
58 65
58 70
58 73
58 74
58 76
58 81
58 84
58 86
58 111
58 115
58 118
58 119
58 123
58 132
58 183
58 187
58 201
58 220
58 236
59 63
59 65
59 71
59 77
59 78
59 82
59 88
59 96
59 169
59 171
59 183
59 187
59 201
59 220
59 223
59 236
59 240
60 72
60 79
60 89
60 92
60 108
60 109
60 146
60 178
60 179
60 197
60 198
60 199
60 215
61 62
61 64
61 66
61 67
61 68
61 69
61 80
61 83
61 85
61 98
61 101
61 104
61 120
61 139
61 184
61 186
61 188
61 190
61 191
61 193
61 202
61 204
61 205
61 206
61 209
61 242
61 244
62 64
62 66
62 67
62 68
62 69
62 80
62 82
62 83
62 85
62 98
62 101
62 104
62 120
62 137
62 139
62 148
62 150
62 151
62 154
62 184
62 186
62 188
62 190
62 191
62 193
62 202
62 204
62 205
62 206
62 208
62 209
62 217
62 227
62 242
62 244
62 245
63 65
63 70
63 73
63 74
63 76
63 81
63 84
63 86
63 97
63 99
63 100
63 111
63 115
63 118
63 119
63 123
63 132
63 136
63 183
63 187
63 192
63 201
63 220
63 236
63 246
64 66
64 67
64 68
64 69
64 80
64 83
64 85
64 101
64 120
64 139
65 70
65 73
65 74
65 76
65 81
65 84
65 86
65 98
65 102
65 103
65 104
65 105
65 106
65 111
65 115
65 118
65 119
65 123
65 132
65 174
65 183
65 187
65 201
65 220
65 229
65 236
65 242
65 248
66 67
66 68
66 69
66 80
66 83
66 85
66 101
66 120
66 139
66 184
66 186
66 188
66 190
66 191
66 193
66 244
67 68
67 69
67 80
67 83
67 85
67 98
67 101
67 104
67 120
67 122
67 124
67 139
67 142
67 143
67 147
67 155
67 158
67 160
67 174
67 175
67 176
67 184
67 186
67 188
67 190
67 191
67 193
67 202
67 204
67 205
67 206
67 209
67 242
67 244
68 69
68 80
68 83
68 85
68 101
68 105
68 120
68 139
68 141
68 180
68 181
68 185
68 189
68 192
68 194
68 195
68 207
68 208
68 211
68 239
68 241
68 243
68 245
68 249
69 80
69 83
69 85
69 101
69 120
69 139
69 180
69 181
69 185
69 189
69 192
69 194
69 195
69 207
70 73
70 74
70 76
70 81
70 84
70 86
70 87
70 90
70 91
70 94
70 111
70 115
70 118
70 119
70 123
70 132
70 147
70 148
70 162
70 163
70 164
70 165
70 180
70 181
70 196
70 214
70 216
70 217
70 232
70 233
70 234
71 77
71 78
71 82
71 88
71 96
71 107
71 110
71 112
71 116
71 117
71 121
71 122
71 124
71 125
71 126
71 127
71 128
71 129
71 130
71 133
71 136
71 139
71 144
71 145
71 161
71 169
71 171
71 187
71 213
71 223
71 240
72 75
72 79
72 80
72 83
72 85
72 89
72 92
72 93
72 101
72 108
72 109
72 113
72 120
72 146
72 166
72 178
72 179
72 197
72 198
72 199
72 215
73 74
73 76
73 81
73 84
73 86
73 87
73 90
73 91
73 94
73 111
73 115
73 118
73 119
73 123
73 127
73 132
73 147
73 148
73 162
73 163
73 164
73 165
73 180
73 181
73 196
73 214
73 216
73 217
73 232
73 233
73 234
74 76
74 81
74 84
74 86
74 87
74 90
74 91
74 94
74 111
74 115
74 118
74 119
74 123
74 132
74 147
74 148
74 162
74 163
74 164
74 165
74 180
74 181
74 196
74 214
74 216
74 217
74 232
74 233
74 234
75 79
75 80
75 83
75 85
75 89
75 92
75 93
75 101
75 108
75 109
75 113
75 120
75 166
76 81
76 84
76 86
76 111
76 115
76 118
76 119
76 123
76 132
77 78
77 82
77 88
77 96
77 169
77 171
77 187
77 223
77 240
78 82
78 88
78 96
78 107
78 110
78 112
78 116
78 117
78 121
78 122
78 124
78 169
78 171
78 187
78 223
78 240
79 80
79 83
79 85
79 89
79 92
79 93
79 101
79 108
79 109
79 113
79 120
79 146
79 166
79 178
79 179
79 197
79 198
79 199
79 215
80 83
80 85
80 89
80 92
80 93
80 98
80 101
80 104
80 108
80 109
80 113
80 120
80 139
80 166
80 184
80 186
80 188
80 190
80 191
80 193
80 202
80 204
80 205
80 206
80 209
80 242
80 244
81 84
81 86
81 97
81 99
81 100
81 111
81 115
81 118
81 119
81 123
81 132
81 136
81 161
81 170
81 172
81 173
81 174
81 175
81 176
81 177
81 192
81 246
82 88
82 96
82 107
82 110
82 112
82 116
82 117
82 121
82 122
82 124
82 135
82 137
82 138
82 140
82 141
82 142
82 143
82 148
82 150
82 151
82 154
82 169
82 171
82 187
82 191
82 208
82 209
82 217
82 223
82 227
82 240
82 245
83 85
83 89
83 92
83 93
83 101
83 108
83 109
83 113
83 120
83 139
83 166
84 86
84 98
84 102
84 103
84 104
84 105
84 106
84 111
84 115
84 118
84 119
84 123
84 132
84 174
84 229
84 242
84 248
85 89
85 92
85 93
85 101
85 105
85 108
85 109
85 113
85 120
85 139
85 141
85 166
85 180
85 181
85 185
85 189
85 192
85 194
85 195
85 207
85 208
85 211
85 239
85 241
85 243
85 245
85 249
86 98
86 102
86 103
86 104
86 105
86 106
86 111
86 115
86 118
86 119
86 123
86 132
87 90
87 91
87 94
87 111
87 147
87 148
87 162
87 163
87 164
87 165
87 180
87 181
87 196
87 214
87 216
87 217
87 232
87 233
87 234
88 89
88 92
88 93
88 95
88 96
88 101
88 107
88 110
88 112
88 116
88 117
88 121
88 122
88 124
88 125
88 126
88 127
88 128
88 129
88 130
88 133
88 136
88 139
88 144
88 145
88 150
88 161
88 166
88 167
88 169
88 171
88 187
88 213
88 223
88 237
88 240
89 92
89 93
89 95
89 96
89 101
89 108
89 109
89 113
89 120
89 130
89 146
89 150
89 166
89 167
89 169
89 171
89 178
89 179
89 197
89 198
89 199
89 215
89 223
89 237
89 240
90 91
90 94
90 111
90 127
90 147
90 148
90 162
90 163
90 164
90 165
90 180
90 181
90 196
90 214
90 216
90 217
90 232
90 233
90 234
91 94
91 111
91 147
91 148
91 162
91 163
91 164
91 165
91 180
91 181
91 196
91 214
91 216
91 217
91 232
91 233
91 234
92 93
92 95
92 96
92 101
92 108
92 109
92 113
92 120
92 130
92 146
92 150
92 166
92 167
92 169
92 171
92 178
92 179
92 197
92 198
92 199
92 215
92 223
92 237
92 240
93 95
93 96
93 101
93 108
93 109
93 113
93 120
93 130
93 150
93 166
93 167
93 169
93 171
93 223
93 237
93 240
94 111
94 127
94 129
94 139
94 147
94 148
94 162
94 163
94 164
94 165
94 180
94 181
94 196
94 214
94 216
94 217
94 232
94 233
94 234
95 96
95 101
95 130
95 150
95 166
95 167
95 169
95 171
95 223
95 237
95 240
96 101
96 130
96 150
96 166
96 167
96 169
96 171
96 187
96 223
96 237
96 240
97 98
97 99
97 100
97 118
97 136
97 144
97 145
97 152
97 153
97 161
97 170
97 172
97 173
97 174
97 175
97 176
97 177
97 186
97 188
97 192
97 202
97 204
97 205
97 213
97 221
97 224
97 225
97 239
97 241
97 242
97 246
98 102
98 103
98 104
98 105
98 106
98 119
98 123
98 144
98 145
98 152
98 153
98 161
98 170
98 174
98 186
98 188
98 190
98 191
98 202
98 204
98 205
98 206
98 209
98 213
98 221
98 224
98 225
98 229
98 239
98 241
98 242
98 244
98 248
99 100
99 118
99 136
99 161
99 170
99 172
99 173
99 174
99 175
99 176
99 177
99 192
99 246
100 118
100 136
100 192
100 246
101 108
101 109
101 113
101 120
101 130
101 139
101 150
101 166
101 167
101 169
101 171
101 223
101 237
101 240
102 103
102 104
102 105
102 106
102 119
102 123
102 155
102 201
102 215
102 219
102 220
102 228
102 235
102 236
102 244
102 247
103 104
103 105
103 106
103 119
103 123
103 174
103 229
103 242
103 248
104 105
104 106
104 119
104 122
104 123
104 124
104 142
104 143
104 147
104 155
104 158
104 160
104 174
104 175
104 176
104 186
104 188
104 190
104 191
104 202
104 204
104 205
104 206
104 209
104 229
104 242
104 244
104 248
105 106
105 119
105 123
105 141
105 189
105 194
105 207
105 208
105 211
105 239
105 241
105 243
105 245
105 249
106 119
106 123
107 110
107 112
107 116
107 117
107 121
107 122
107 124
107 125
107 126
107 127
107 128
107 129
107 130
107 133
107 136
107 139
107 144
107 145
107 161
107 171
107 213
108 109
108 111
108 113
108 114
108 115
108 118
108 119
108 120
108 123
108 131
108 132
108 146
108 166
108 178
108 179
108 197
108 198
108 199
108 202
108 215
108 221
109 111
109 113
109 114
109 115
109 118
109 119
109 120
109 123
109 131
109 132
109 146
109 166
109 178
109 179
109 197
109 198
109 199
109 202
109 215
109 221
110 112
110 116
110 117
110 121
110 122
110 124
110 125
110 126
110 127
110 128
110 129
110 130
110 133
110 136
110 139
110 144
110 145
110 161
110 164
110 171
110 213
111 113
111 114
111 115
111 118
111 119
111 120
111 123
111 131
111 132
111 147
111 148
111 162
111 163
111 164
111 165
111 180
111 181
111 196
111 202
111 214
111 216
111 217
111 221
111 232
111 233
111 234
112 116
112 117
112 121
112 122
112 124
112 125
112 126
112 127
112 128
112 129
112 130
112 133
112 136
112 139
112 144
112 145
112 161
112 171
112 213
113 114
113 115
113 118
113 119
113 120
113 123
113 131
113 132
113 166
113 202
113 221
114 115
114 118
114 119
114 120
114 123
114 131
114 132
114 202
114 221
115 118
115 119
115 120
115 123
115 131
115 132
115 202
115 221
116 117
116 121
116 122
116 124
116 171
117 121
117 122
117 124
117 135
117 137
117 138
117 140
117 141
117 142
117 143
117 171
118 119
118 120
118 123
118 131
118 132
118 136
118 192
118 202
118 221
118 246
119 120
119 123
119 131
119 132
119 155
119 201
119 202
119 215
119 219
119 220
119 221
119 228
119 235
119 236
119 244
119 247
120 123
120 131
120 132
120 139
120 166
120 202
120 221
121 122
121 124
121 135
121 137
121 138
121 140
121 141
121 142
121 143
121 146
121 149
121 156
121 157
121 159
121 171
121 173
121 177
121 218
121 222
121 230
122 124
122 135
122 137
122 138
122 140
122 141
122 142
122 143
122 147
122 155
122 158
122 160
122 171
122 174
122 175
122 176
123 131
123 132
123 202
123 221
124 135
124 137
124 138
124 140
124 141
124 142
124 143
124 147
124 155
124 158
124 160
124 171
124 174
124 175
124 176
124 214
124 215
124 216
124 219
124 220
124 223
124 228
124 229
124 231
125 126
125 127
125 128
125 129
125 130
125 133
125 136
125 139
125 144
125 145
125 161
125 213
126 127
126 128
126 129
126 130
126 133
126 136
126 139
126 144
126 145
126 161
126 164
126 213
127 128
127 129
127 130
127 133
127 136
127 139
127 144
127 145
127 161
127 163
127 180
127 213
127 214
127 233
128 129
128 130
128 133
128 136
128 139
128 144
128 145
128 161
128 213
129 130
129 133
129 136
129 139
129 144
129 145
129 161
129 164
129 213
130 133
130 136
130 139
130 144
130 145
130 150
130 161
130 166
130 167
130 169
130 171
130 213
130 223
130 237
130 240
131 132
131 134
131 152
131 170
131 186
131 202
131 204
131 221
131 224
131 239
132 134
132 152
132 170
132 186
132 202
132 204
132 221
132 224
132 239
133 136
133 139
133 144
133 145
133 161
133 213
134 152
134 170
134 186
134 202
134 204
134 221
134 224
134 239
135 137
135 138
135 140
135 141
135 142
135 143
136 139
136 144
136 145
136 161
136 192
136 213
136 246
137 138
137 140
137 141
137 142
137 143
137 148
137 150
137 151
137 154
137 191
137 208
137 209
137 217
137 227
137 245
138 140
138 141
138 142
138 143
138 146
138 149
138 156
138 157
138 159
138 173
138 177
138 197
138 198
138 199
138 200
138 207
138 210
138 218
138 222
138 230
139 144
139 145
139 161
139 164
139 213
140 141
140 142
140 143
140 146
140 149
140 156
140 157
140 159
140 173
140 177
140 218
140 222
140 230
141 142
141 143
141 146
141 149
141 156
141 157
141 159
141 173
141 177
141 184
141 189
141 194
141 196
141 201
141 203
141 207
141 208
141 211
141 212
141 218
141 222
141 230
141 239
141 241
141 243
141 245
141 249
142 143
142 147
142 155
142 158
142 160
142 174
142 175
142 176
143 147
143 155
143 158
143 160
143 174
143 175
143 176
143 214
143 215
143 216
143 219
143 220
143 223
143 228
143 229
143 231
144 145
144 152
144 153
144 161
144 170
144 186
144 188
144 202
144 204
144 205
144 213
144 221
144 224
144 225
144 239
144 241
144 242
145 152
145 153
145 161
145 164
145 170
145 186
145 188
145 202
145 204
145 205
145 213
145 221
145 224
145 225
145 239
145 241
145 242
146 149
146 156
146 157
146 159
146 173
146 177
146 178
146 179
146 182
146 183
146 187
146 197
146 198
146 199
146 200
146 201
146 207
146 210
146 215
146 218
146 219
146 220
146 222
146 230
146 235
146 236
147 148
147 155
147 158
147 160
147 162
147 163
147 164
147 165
147 174
147 175
147 176
147 180
147 181
147 184
147 185
147 192
147 196
147 203
147 214
147 215
147 216
147 217
147 219
147 220
147 222
147 223
147 228
147 229
147 231
147 232
147 233
147 234
147 237
147 238
147 240
147 246
148 150
148 151
148 154
148 162
148 163
148 164
148 165
148 166
148 167
148 168
148 169
148 171
148 180
148 181
148 191
148 196
148 208
148 209
148 214
148 216
148 217
148 227
148 232
148 233
148 234
148 245
149 156
149 157
149 159
149 173
149 177
149 178
149 179
149 182
149 183
149 187
149 197
149 198
149 199
149 200
149 201
149 207
149 210
149 215
149 218
149 219
149 220
149 222
149 230
149 235
149 236
150 151
150 154
150 162
150 163
150 164
150 165
150 166
150 167
150 168
150 169
150 171
150 191
150 208
150 209
150 217
150 223
150 227
150 237
150 240
150 245
151 154
151 162
151 163
151 164
151 165
151 166
151 167
151 168
151 169
151 171
151 191
151 208
151 209
151 217
151 227
151 245
152 153
152 161
152 170
152 186
152 188
152 202
152 204
152 205
152 213
152 221
152 224
152 225
152 239
152 241
152 242
153 161
153 170
153 186
153 188
153 202
153 204
153 205
153 213
153 221
153 224
153 225
153 239
153 241
153 242
154 191
154 208
154 209
154 217
154 227
154 245
155 158
155 160
155 174
155 175
155 176
155 201
155 214
155 215
155 216
155 219
155 220
155 223
155 228
155 229
155 231
155 235
155 236
155 244
155 247
156 157
156 159
156 173
156 177
156 197
156 198
156 199
156 200
156 207
156 210
156 218
156 222
156 230
157 159
157 173
157 177
157 218
157 222
157 230
158 160
158 174
158 175
158 176
159 173
159 177
159 184
159 196
159 201
159 203
159 208
159 211
159 212
159 218
159 222
159 230
160 174
160 175
160 176
160 214
160 215
160 216
160 219
160 220
160 223
160 228
160 229
160 231
161 170
161 172
161 173
161 174
161 175
161 176
161 177
161 186
161 188
161 202
161 204
161 205
161 213
161 221
161 224
161 225
161 239
161 241
161 242
162 163
162 164
162 165
162 166
162 167
162 168
162 169
162 171
162 180
162 181
162 196
162 214
162 216
162 217
162 232
162 233
162 234
163 164
163 165
163 166
163 167
163 168
163 169
163 171
163 180
163 181
163 196
163 214
163 216
163 217
163 232
163 233
163 234
164 165
164 166
164 167
164 168
164 169
164 171
164 180
164 181
164 196
164 214
164 216
164 217
164 232
164 233
164 234
165 166
165 167
165 168
165 169
165 171
165 180
165 181
165 196
165 214
165 216
165 217
165 232
165 233
165 234
166 167
166 168
166 169
166 171
166 217
166 223
166 237
166 240
167 168
167 169
167 171
167 217
167 223
167 237
167 240
168 169
168 171
168 217
169 171
169 187
169 217
169 223
169 237
169 240
170 172
170 173
170 174
170 175
170 176
170 177
170 186
170 188
170 202
170 204
170 205
170 213
170 221
170 224
170 225
170 239
170 241
170 242
171 187
171 217
171 223
171 237
171 240
172 173
172 174
172 175
172 176
172 177
173 174
173 175
173 176
173 177
173 197
173 198
173 199
173 200
173 207
173 210
173 218
173 222
173 230
174 175
174 176
174 177
174 214
174 215
174 216
174 219
174 220
174 223
174 228
174 229
174 231
174 242
174 248
175 176
175 177
176 177
176 214
176 215
176 216
176 219
176 220
176 223
176 228
176 229
176 231
177 184
177 196
177 201
177 203
177 208
177 211
177 212
177 218
177 222
177 230
178 179
178 182
178 183
178 187
178 197
178 198
178 199
178 200
178 201
178 215
178 218
178 219
178 220
178 235
178 236
179 182
179 183
179 187
179 197
179 198
179 199
179 200
179 201
179 215
179 218
179 219
179 220
179 235
179 236
180 181
180 184
180 185
180 189
180 192
180 194
180 195
180 196
180 203
180 207
180 214
180 216
180 217
180 222
180 223
180 232
180 233
180 234
180 237
180 238
180 240
180 246
181 184
181 185
181 189
181 192
181 194
181 195
181 196
181 203
181 207
181 214
181 216
181 217
181 222
181 223
181 232
181 233
181 234
181 237
181 238
181 240
181 246
182 183
182 187
182 197
182 198
182 199
182 200
182 201
182 215
182 218
182 219
182 220
182 235
182 236
183 187
183 197
183 198
183 199
183 200
183 201
183 215
183 218
183 219
183 220
183 235
183 236
184 185
184 186
184 188
184 190
184 191
184 192
184 193
184 196
184 201
184 203
184 208
184 211
184 212
184 214
184 216
184 222
184 223
184 232
184 233
184 234
184 237
184 238
184 240
184 244
184 246
185 189
185 192
185 194
185 195
185 196
185 203
185 207
185 214
185 216
185 222
185 223
185 232
185 233
185 234
185 237
185 238
185 240
185 246
186 188
186 190
186 191
186 193
186 202
186 204
186 205
186 206
186 209
186 213
186 221
186 224
186 225
186 239
186 241
186 242
186 244
187 197
187 198
187 199
187 200
187 201
187 215
187 218
187 219
187 220
187 223
187 235
187 236
187 240
188 190
188 191
188 193
188 202
188 204
188 205
188 206
188 209
188 213
188 221
188 224
188 225
188 239
188 241
188 242
188 244
189 192
189 194
189 195
189 207
189 208
189 211
189 213
189 217
189 218
189 221
189 222
189 224
189 225
189 226
189 227
189 230
189 239
189 241
189 243
189 245
189 249
190 191
190 193
190 202
190 204
190 205
190 206
190 209
190 242
190 244
191 193
191 202
191 204
191 205
191 206
191 208
191 209
191 217
191 227
191 242
191 244
191 245
192 194
192 195
192 196
192 203
192 207
192 214
192 216
192 222
192 223
192 232
192 233
192 234
192 237
192 238
192 240
192 246
193 244
194 195
194 207
194 208
194 211
194 239
194 241
194 243
194 245
194 249
195 207
196 201
196 203
196 208
196 211
196 212
196 214
196 216
196 217
196 222
196 223
196 232
196 233
196 234
196 237
196 238
196 240
196 246
197 198
197 199
197 200
197 201
197 207
197 210
197 215
197 218
197 219
197 220
197 235
197 236
198 199
198 200
198 201
198 207
198 210
198 215
198 218
198 219
198 220
198 235
198 236
199 200
199 201
199 207
199 210
199 215
199 218
199 219
199 220
199 235
199 236
200 201
200 207
200 210
200 215
200 218
200 219
200 220
200 235
200 236
201 203
201 208
201 211
201 212
201 215
201 218
201 219
201 220
201 222
201 228
201 235
201 236
201 244
201 247
202 204
202 205
202 206
202 209
202 213
202 221
202 224
202 225
202 239
202 241
202 242
202 244
203 208
203 211
203 212
203 214
203 216
203 222
203 223
203 232
203 233
203 234
203 237
203 238
203 240
203 246
204 205
204 206
204 209
204 213
204 221
204 224
204 225
204 239
204 241
204 242
204 244
205 206
205 209
205 213
205 221
205 224
205 225
205 239
205 241
205 242
205 244
206 209
206 242
206 244
207 208
207 210
207 211
207 213
207 217
207 218
207 221
207 222
207 224
207 225
207 226
207 227
207 230
207 239
207 241
207 243
207 245
207 249
208 209
208 211
208 212
208 213
208 217
208 218
208 221
208 222
208 224
208 225
208 226
208 227
208 230
208 239
208 241
208 243
208 245
208 249
209 217
209 227
209 242
209 244
209 245
210 218
211 212
211 222
211 239
211 241
211 243
211 245
211 249
212 222
213 217
213 218
213 221
213 222
213 224
213 225
213 226
213 227
213 230
213 239
213 241
213 242
213 243
213 245
214 215
214 216
214 217
214 219
214 220
214 222
214 223
214 228
214 229
214 231
214 232
214 233
214 234
214 237
214 238
214 240
214 246
215 216
215 218
215 219
215 220
215 223
215 228
215 229
215 231
215 235
215 236
215 244
215 247
216 217
216 219
216 220
216 222
216 223
216 228
216 229
216 231
216 232
216 233
216 234
216 237
216 238
216 240
216 246
217 218
217 221
217 222
217 224
217 225
217 226
217 227
217 230
217 232
217 233
217 234
217 239
217 241
217 243
217 245
218 219
218 220
218 221
218 222
218 224
218 225
218 226
218 227
218 230
218 235
218 236
218 239
218 241
218 243
218 245
219 220
219 223
219 228
219 229
219 231
219 235
219 236
219 244
219 247
220 223
220 228
220 229
220 231
220 235
220 236
220 244
220 247
221 222
221 224
221 225
221 226
221 227
221 230
221 239
221 241
221 242
221 243
221 245
222 223
222 224
222 225
222 226
222 227
222 230
222 232
222 233
222 234
222 237
222 238
222 239
222 240
222 241
222 243
222 245
222 246
223 228
223 229
223 231
223 232
223 233
223 234
223 237
223 238
223 240
223 246
224 225
224 226
224 227
224 230
224 239
224 241
224 242
224 243
224 245
225 226
225 227
225 230
225 239
225 241
225 242
225 243
225 245
226 227
226 230
226 239
226 241
226 243
226 245
227 230
227 239
227 241
227 243
227 245
228 229
228 231
228 235
228 236
228 244
228 247
229 231
229 242
229 248
230 239
230 241
230 243
230 245
232 233
232 234
232 237
232 238
232 240
232 246
233 234
233 237
233 238
233 240
233 246
234 237
234 238
234 240
234 246
235 236
235 244
235 247
236 244
236 247
237 238
237 240
237 246
238 240
238 246
239 241
239 242
239 243
239 245
239 249
240 246
241 242
241 243
241 245
241 249
242 244
242 248
243 245
243 249
244 247
245 249
0
1
2
3
4
5
6
7 8
9
10 11
12 13
14
15 16
17 18
19
20
21
22
23 24
25
26 27
28
29
30
31 32
33
34
35
36 37
38
39
40 41
42 43
44
45 46
47 48
49
50 51
52
53
54
55 56
57
58
59
60
61
62 63
64
65 66
67 68
69
70 71
72 73
74
75
76
77
78 79
80 81
82
83
84
85
86
87 88
89 90
91 92
93 94
95
96
97 98
99
100
101 102
103
104 105
106
107 108
109 110
111 112
113
114
115
116
117
118
119 120
121
122
123 124
125
126 127
128
129
130 131
132 133
134
135
136 137
138 139
140
141 142
143
144
145 146
147 148
149
150
151
152
153
154
155 156
157
158
159 160
161 162
163 164
165
166
167
168
169 170
171
172
173
174
175
176 177
178
179 180
181
182
183
184 185
186 187
188
189 190
191 192
193
194
195
196 197
198
199
200
201 202
203
204
205
206 207
208 209
210
211
212
213
214 215
216 217
218 219
220 221
222
223 224
225
226
227
228
229 230
231
232
233
234
235
236 237
238
239 240
241 242
243 244
245 246
247
248
249
